c Generated map
c Size: 30 * 30, weights in range: 1 to 10, walls: True, with ratio 0.1
c dim 1 of 3
c
p sp 900 1409
c graph contains 900 nodes and 1409 arcs
c
a 1 31 10
a 31 1 10
a 1 2 3
a 2 1 3
a 2 32 2
a 32 2 2
a 2 3 2
a 3 2 2
a 3 33 7
a 33 3 7
a 3 4 5
a 4 3 5
a 4 34 2
a 34 4 2
a 4 5 2
a 5 4 2
a 7 37 1
a 37 7 1
a 7 8 7
a 8 7 7
a 8 38 6
a 38 8 6
a 8 9 6
a 9 8 6
a 9 39 9
a 39 9 9
a 9 10 3
a 10 9 3
a 10 40 8
a 40 10 8
a 10 11 2
a 11 10 2
a 11 12 3
a 12 11 3
a 12 42 2
a 42 12 2
a 12 13 3
a 13 12 3
a 13 43 9
a 43 13 9
a 13 14 10
a 14 13 10
a 14 44 4
a 44 14 4
a 14 15 5
a 15 14 5
a 15 45 1
a 45 15 1
a 15 16 8
a 16 15 8
a 16 17 10
a 17 16 10
a 17 47 7
a 47 17 7
a 17 18 7
a 18 17 7
a 18 48 6
a 48 18 6
a 18 19 10
a 19 18 10
a 19 49 7
a 49 19 7
a 19 20 8
a 20 19 8
a 20 21 9
a 21 20 9
a 21 51 10
a 51 21 10
a 23 53 8
a 53 23 8
a 23 24 5
a 24 23 5
a 24 54 6
a 54 24 6
a 24 25 3
a 25 24 3
a 25 55 2
a 55 25 2
a 25 26 5
a 26 25 5
a 26 56 4
a 56 26 4
a 26 27 6
a 27 26 6
a 27 57 2
a 57 27 2
a 27 28 10
a 28 27 10
a 28 58 3
a 58 28 3
a 28 29 6
a 29 28 6
a 29 59 6
a 59 29 6
a 29 30 3
a 30 29 3
a 30 60 10
a 60 30 10
a 31 61 7
a 61 31 7
a 31 32 4
a 32 31 4
a 32 62 9
a 62 32 9
a 32 33 10
a 33 32 10
a 33 63 1
a 63 33 1
a 33 34 6
a 34 33 6
a 34 64 8
a 64 34 8
a 36 66 2
a 66 36 2
a 36 37 1
a 37 36 1
a 37 67 7
a 67 37 7
a 37 38 4
a 38 37 4
a 38 68 1
a 68 38 1
a 38 39 5
a 39 38 5
a 39 69 2
a 69 39 2
a 39 40 6
a 40 39 6
a 40 70 8
a 70 40 8
a 42 72 9
a 72 42 9
a 42 43 4
a 43 42 4
a 43 44 4
a 44 43 4
a 44 74 6
a 74 44 6
a 44 45 2
a 45 44 2
a 45 75 8
a 75 45 8
a 47 77 3
a 77 47 3
a 47 48 2
a 48 47 2
a 48 78 5
a 78 48 5
a 48 49 10
a 49 48 10
a 49 79 2
a 79 49 2
a 51 81 4
a 81 51 4
a 51 52 2
a 52 51 2
a 52 82 1
a 82 52 1
a 52 53 4
a 53 52 4
a 53 83 6
a 83 53 6
a 53 54 4
a 54 53 4
a 54 55 5
a 55 54 5
a 55 85 10
a 85 55 10
a 55 56 7
a 56 55 7
a 56 86 9
a 86 56 9
a 56 57 1
a 57 56 1
a 57 87 4
a 87 57 4
a 57 58 3
a 58 57 3
a 58 88 7
a 88 58 7
a 58 59 5
a 59 58 5
a 59 60 9
a 60 59 9
a 60 90 10
a 90 60 10
a 61 91 4
a 91 61 4
a 61 62 5
a 62 61 5
a 62 92 1
a 92 62 1
a 62 63 6
a 63 62 6
a 63 93 3
a 93 63 3
a 63 64 2
a 64 63 2
a 64 94 4
a 94 64 4
a 64 65 1
a 65 64 1
a 65 95 10
a 95 65 10
a 65 66 3
a 66 65 3
a 66 96 5
a 96 66 5
a 66 67 1
a 67 66 1
a 67 97 10
a 97 67 10
a 67 68 3
a 68 67 3
a 68 69 5
a 69 68 5
a 69 99 8
a 99 69 8
a 69 70 8
a 70 69 8
a 70 100 6
a 100 70 6
a 70 71 7
a 71 70 7
a 71 101 4
a 101 71 4
a 71 72 7
a 72 71 7
a 72 102 9
a 102 72 9
a 74 104 3
a 104 74 3
a 74 75 2
a 75 74 2
a 75 105 7
a 105 75 7
a 75 76 9
a 76 75 9
a 76 106 9
a 106 76 9
a 76 77 5
a 77 76 5
a 77 107 10
a 107 77 10
a 77 78 4
a 78 77 4
a 78 108 10
a 108 78 10
a 78 79 1
a 79 78 1
a 79 109 8
a 109 79 8
a 79 80 6
a 80 79 6
a 80 110 5
a 110 80 5
a 80 81 6
a 81 80 6
a 81 111 9
a 111 81 9
a 81 82 1
a 82 81 1
a 82 112 9
a 112 82 9
a 82 83 1
a 83 82 1
a 83 113 8
a 113 83 8
a 85 115 10
a 115 85 10
a 85 86 8
a 86 85 8
a 86 116 4
a 116 86 4
a 86 87 5
a 87 86 5
a 87 117 9
a 117 87 9
a 87 88 2
a 88 87 2
a 88 118 7
a 118 88 7
a 90 120 7
a 120 90 7
a 91 121 3
a 121 91 3
a 91 92 2
a 92 91 2
a 92 93 2
a 93 92 2
a 93 123 10
a 123 93 10
a 93 94 9
a 94 93 9
a 94 124 9
a 124 94 9
a 94 95 1
a 95 94 1
a 95 125 5
a 125 95 5
a 95 96 5
a 96 95 5
a 96 126 6
a 126 96 6
a 96 97 5
a 97 96 5
a 97 127 8
a 127 97 8
a 99 129 5
a 129 99 5
a 99 100 4
a 100 99 4
a 100 130 10
a 130 100 10
a 100 101 3
a 101 100 3
a 101 131 8
a 131 101 8
a 101 102 8
a 102 101 8
a 102 132 9
a 132 102 9
a 102 103 8
a 103 102 8
a 103 133 5
a 133 103 5
a 103 104 4
a 104 103 4
a 104 134 1
a 134 104 1
a 104 105 8
a 105 104 8
a 105 135 6
a 135 105 6
a 105 106 5
a 106 105 5
a 106 136 9
a 136 106 9
a 106 107 4
a 107 106 4
a 107 137 1
a 137 107 1
a 107 108 5
a 108 107 5
a 108 138 8
a 138 108 8
a 108 109 10
a 109 108 10
a 109 139 1
a 139 109 1
a 109 110 10
a 110 109 10
a 110 140 3
a 140 110 3
a 110 111 5
a 111 110 5
a 111 141 9
a 141 111 9
a 111 112 4
a 112 111 4
a 112 113 3
a 113 112 3
a 113 143 8
a 143 113 8
a 113 114 5
a 114 113 5
a 114 144 2
a 144 114 2
a 114 115 7
a 115 114 7
a 115 145 6
a 145 115 6
a 115 116 1
a 116 115 1
a 116 146 3
a 146 116 3
a 116 117 10
a 117 116 10
a 117 147 9
a 147 117 9
a 117 118 6
a 118 117 6
a 118 148 9
a 148 118 9
a 120 150 2
a 150 120 2
a 121 151 7
a 151 121 7
a 123 153 3
a 153 123 3
a 123 124 1
a 124 123 1
a 124 154 4
a 154 124 4
a 124 125 6
a 125 124 6
a 125 155 3
a 155 125 3
a 125 126 6
a 126 125 6
a 126 156 9
a 156 126 9
a 126 127 9
a 127 126 9
a 127 157 5
a 157 127 5
a 127 128 10
a 128 127 10
a 128 158 1
a 158 128 1
a 128 129 10
a 129 128 10
a 129 159 4
a 159 129 4
a 129 130 6
a 130 129 6
a 130 160 6
a 160 130 6
a 130 131 8
a 131 130 8
a 131 132 4
a 132 131 4
a 132 162 3
a 162 132 3
a 132 133 8
a 133 132 8
a 133 163 8
a 163 133 8
a 133 134 6
a 134 133 6
a 134 164 6
a 164 134 6
a 134 135 9
a 135 134 9
a 135 165 8
a 165 135 8
a 135 136 4
a 136 135 4
a 136 166 9
a 166 136 9
a 136 137 1
a 137 136 1
a 137 167 9
a 167 137 9
a 137 138 7
a 138 137 7
a 138 168 5
a 168 138 5
a 138 139 2
a 139 138 2
a 139 169 4
a 169 139 4
a 139 140 2
a 140 139 2
a 140 170 9
a 170 140 9
a 140 141 1
a 141 140 1
a 141 171 9
a 171 141 9
a 143 144 6
a 144 143 6
a 144 174 1
a 174 144 1
a 144 145 4
a 145 144 4
a 145 175 2
a 175 145 2
a 145 146 9
a 146 145 9
a 146 176 3
a 176 146 3
a 146 147 1
a 147 146 1
a 147 177 7
a 177 147 7
a 147 148 4
a 148 147 4
a 148 178 4
a 178 148 4
a 148 149 4
a 149 148 4
a 149 179 9
a 179 149 9
a 149 150 2
a 150 149 2
a 151 181 5
a 181 151 5
a 151 152 5
a 152 151 5
a 152 182 2
a 182 152 2
a 152 153 10
a 153 152 10
a 153 183 5
a 183 153 5
a 153 154 10
a 154 153 10
a 154 184 10
a 184 154 10
a 154 155 6
a 155 154 6
a 155 156 10
a 156 155 10
a 156 186 2
a 186 156 2
a 156 157 7
a 157 156 7
a 157 187 9
a 187 157 9
a 157 158 6
a 158 157 6
a 158 188 7
a 188 158 7
a 158 159 1
a 159 158 1
a 159 189 10
a 189 159 10
a 159 160 1
a 160 159 1
a 160 190 7
a 190 160 7
a 162 192 1
a 192 162 1
a 162 163 5
a 163 162 5
a 163 193 10
a 193 163 10
a 163 164 7
a 164 163 7
a 164 194 10
a 194 164 10
a 164 165 2
a 165 164 2
a 165 195 4
a 195 165 4
a 165 166 4
a 166 165 4
a 166 196 3
a 196 166 3
a 166 167 1
a 167 166 1
a 167 197 2
a 197 167 2
a 167 168 2
a 168 167 2
a 168 198 5
a 198 168 5
a 168 169 10
a 169 168 10
a 169 199 2
a 199 169 2
a 169 170 7
a 170 169 7
a 170 200 5
a 200 170 5
a 170 171 7
a 171 170 7
a 171 201 1
a 201 171 1
a 171 172 4
a 172 171 4
a 172 202 2
a 202 172 2
a 174 204 10
a 204 174 10
a 174 175 9
a 175 174 9
a 175 205 6
a 205 175 6
a 175 176 9
a 176 175 9
a 176 206 1
a 206 176 1
a 176 177 4
a 177 176 4
a 177 207 3
a 207 177 3
a 177 178 7
a 178 177 7
a 178 208 3
a 208 178 3
a 178 179 7
a 179 178 7
a 179 209 9
a 209 179 9
a 181 211 5
a 211 181 5
a 181 182 1
a 182 181 1
a 182 212 5
a 212 182 5
a 182 183 10
a 183 182 10
a 183 213 5
a 213 183 5
a 183 184 8
a 184 183 8
a 186 216 3
a 216 186 3
a 186 187 6
a 187 186 6
a 187 188 1
a 188 187 1
a 188 218 5
a 218 188 5
a 188 189 8
a 189 188 8
a 189 219 8
a 219 189 8
a 189 190 7
a 190 189 7
a 190 191 9
a 191 190 9
a 191 221 3
a 221 191 3
a 191 192 9
a 192 191 9
a 192 222 7
a 222 192 7
a 192 193 8
a 193 192 8
a 193 223 9
a 223 193 9
a 193 194 2
a 194 193 2
a 194 224 8
a 224 194 8
a 194 195 2
a 195 194 2
a 195 225 10
a 225 195 10
a 195 196 7
a 196 195 7
a 196 226 3
a 226 196 3
a 196 197 7
a 197 196 7
a 197 227 10
a 227 197 10
a 197 198 10
a 198 197 10
a 198 228 2
a 228 198 2
a 198 199 4
a 199 198 4
a 199 229 1
a 229 199 1
a 199 200 9
a 200 199 9
a 200 201 8
a 201 200 8
a 201 231 4
a 231 201 4
a 201 202 6
a 202 201 6
a 202 232 1
a 232 202 1
a 202 203 4
a 203 202 4
a 203 204 5
a 204 203 5
a 204 234 8
a 234 204 8
a 204 205 3
a 205 204 3
a 205 235 8
a 235 205 8
a 205 206 3
a 206 205 3
a 206 236 3
a 236 206 3
a 206 207 4
a 207 206 4
a 207 237 2
a 237 207 2
a 207 208 5
a 208 207 5
a 208 238 1
a 238 208 1
a 208 209 3
a 209 208 3
a 209 239 1
a 239 209 1
a 209 210 10
a 210 209 10
a 210 240 1
a 240 210 1
a 211 241 1
a 241 211 1
a 211 212 10
a 212 211 10
a 212 242 1
a 242 212 1
a 212 213 4
a 213 212 4
a 213 243 3
a 243 213 3
a 215 245 2
a 245 215 2
a 215 216 1
a 216 215 1
a 216 246 2
a 246 216 2
a 218 248 2
a 248 218 2
a 218 219 4
a 219 218 4
a 219 249 3
a 249 219 3
a 221 251 10
a 251 221 10
a 221 222 5
a 222 221 5
a 222 252 3
a 252 222 3
a 222 223 1
a 223 222 1
a 223 253 9
a 253 223 9
a 223 224 5
a 224 223 5
a 224 254 2
a 254 224 2
a 224 225 3
a 225 224 3
a 225 255 1
a 255 225 1
a 225 226 9
a 226 225 9
a 226 256 4
a 256 226 4
a 226 227 10
a 227 226 10
a 227 257 8
a 257 227 8
a 227 228 8
a 228 227 8
a 228 229 8
a 229 228 8
a 229 259 6
a 259 229 6
a 231 261 10
a 261 231 10
a 231 232 4
a 232 231 4
a 232 262 7
a 262 232 7
a 234 264 4
a 264 234 4
a 234 235 8
a 235 234 8
a 235 265 8
a 265 235 8
a 235 236 5
a 236 235 5
a 236 266 3
a 266 236 3
a 236 237 6
a 237 236 6
a 237 238 10
a 238 237 10
a 238 268 4
a 268 238 4
a 238 239 10
a 239 238 10
a 239 269 10
a 269 239 10
a 239 240 8
a 240 239 8
a 240 270 8
a 270 240 8
a 241 271 5
a 271 241 5
a 241 242 1
a 242 241 1
a 242 272 10
a 272 242 10
a 242 243 10
a 243 242 10
a 243 273 6
a 273 243 6
a 243 244 5
a 244 243 5
a 244 274 10
a 274 244 10
a 244 245 5
a 245 244 5
a 245 275 10
a 275 245 10
a 245 246 9
a 246 245 9
a 246 276 1
a 276 246 1
a 246 247 4
a 247 246 4
a 247 277 10
a 277 247 10
a 247 248 4
a 248 247 4
a 248 249 3
a 249 248 3
a 249 279 6
a 279 249 6
a 249 250 9
a 250 249 9
a 250 280 10
a 280 250 10
a 250 251 10
a 251 250 10
a 251 281 2
a 281 251 2
a 251 252 9
a 252 251 9
a 252 282 3
a 282 252 3
a 252 253 8
a 253 252 8
a 253 283 3
a 283 253 3
a 253 254 3
a 254 253 3
a 254 284 6
a 284 254 6
a 254 255 6
a 255 254 6
a 255 285 2
a 285 255 2
a 255 256 1
a 256 255 1
a 256 286 1
a 286 256 1
a 256 257 5
a 257 256 5
a 257 287 6
a 287 257 6
a 259 289 1
a 289 259 1
a 259 260 2
a 260 259 2
a 260 290 3
a 290 260 3
a 260 261 2
a 261 260 2
a 261 291 8
a 291 261 8
a 261 262 4
a 262 261 4
a 262 292 6
a 292 262 6
a 262 263 1
a 263 262 1
a 263 293 2
a 293 263 2
a 263 264 1
a 264 263 1
a 264 265 7
a 265 264 7
a 265 295 2
a 295 265 2
a 265 266 1
a 266 265 1
a 266 296 4
a 296 266 4
a 268 298 10
a 298 268 10
a 268 269 8
a 269 268 8
a 269 270 1
a 270 269 1
a 270 300 5
a 300 270 5
a 271 301 6
a 301 271 6
a 271 272 6
a 272 271 6
a 272 302 6
a 302 272 6
a 272 273 1
a 273 272 1
a 273 303 9
a 303 273 9
a 273 274 8
a 274 273 8
a 274 304 9
a 304 274 9
a 274 275 10
a 275 274 10
a 275 305 9
a 305 275 9
a 275 276 5
a 276 275 5
a 276 306 5
a 306 276 5
a 276 277 3
a 277 276 3
a 277 307 9
a 307 277 9
a 279 309 5
a 309 279 5
a 279 280 9
a 280 279 9
a 280 281 5
a 281 280 5
a 281 282 3
a 282 281 3
a 282 312 10
a 312 282 10
a 282 283 1
a 283 282 1
a 283 313 9
a 313 283 9
a 283 284 3
a 284 283 3
a 284 314 4
a 314 284 4
a 284 285 2
a 285 284 2
a 285 315 4
a 315 285 4
a 285 286 10
a 286 285 10
a 286 316 5
a 316 286 5
a 286 287 9
a 287 286 9
a 287 317 10
a 317 287 10
a 287 288 3
a 288 287 3
a 288 318 2
a 318 288 2
a 288 289 10
a 289 288 10
a 289 319 2
a 319 289 2
a 289 290 7
a 290 289 7
a 290 320 4
a 320 290 4
a 290 291 5
a 291 290 5
a 291 321 7
a 321 291 7
a 291 292 9
a 292 291 9
a 292 322 5
a 322 292 5
a 292 293 5
a 293 292 5
a 293 323 4
a 323 293 4
a 295 325 4
a 325 295 4
a 295 296 2
a 296 295 2
a 296 326 10
a 326 296 10
a 296 297 3
a 297 296 3
a 297 327 2
a 327 297 2
a 297 298 3
a 298 297 3
a 298 328 1
a 328 298 1
a 300 330 4
a 330 300 4
a 301 331 7
a 331 301 7
a 301 302 1
a 302 301 1
a 302 332 6
a 332 302 6
a 302 303 5
a 303 302 5
a 303 333 4
a 333 303 4
a 303 304 6
a 304 303 6
a 304 334 2
a 334 304 2
a 304 305 6
a 305 304 6
a 305 335 6
a 335 305 6
a 305 306 7
a 306 305 7
a 306 336 3
a 336 306 3
a 306 307 4
a 307 306 4
a 307 337 6
a 337 307 6
a 307 308 7
a 308 307 7
a 308 338 1
a 338 308 1
a 308 309 5
a 309 308 5
a 309 339 10
a 339 309 10
a 312 342 9
a 342 312 9
a 312 313 10
a 313 312 10
a 313 314 7
a 314 313 7
a 314 344 3
a 344 314 3
a 314 315 5
a 315 314 5
a 315 345 5
a 345 315 5
a 315 316 4
a 316 315 4
a 316 346 1
a 346 316 1
a 316 317 10
a 317 316 10
a 317 347 1
a 347 317 1
a 317 318 10
a 318 317 10
a 318 319 4
a 319 318 4
a 319 320 6
a 320 319 6
a 320 350 3
a 350 320 3
a 320 321 6
a 321 320 6
a 321 351 6
a 351 321 6
a 321 322 10
a 322 321 10
a 322 352 10
a 352 322 10
a 322 323 7
a 323 322 7
a 323 353 4
a 353 323 4
a 323 324 4
a 324 323 4
a 324 354 4
a 354 324 4
a 324 325 6
a 325 324 6
a 325 355 6
a 355 325 6
a 325 326 3
a 326 325 3
a 326 356 3
a 356 326 3
a 326 327 6
a 327 326 6
a 327 357 4
a 357 327 4
a 327 328 9
a 328 327 9
a 328 358 3
a 358 328 3
a 328 329 10
a 329 328 10
a 329 359 10
a 359 329 10
a 329 330 9
a 330 329 9
a 330 360 10
a 360 330 10
a 331 361 6
a 361 331 6
a 331 332 8
a 332 331 8
a 332 362 2
a 362 332 2
a 332 333 3
a 333 332 3
a 333 363 4
a 363 333 4
a 333 334 8
a 334 333 8
a 334 364 7
a 364 334 7
a 334 335 9
a 335 334 9
a 335 365 1
a 365 335 1
a 335 336 1
a 336 335 1
a 336 366 10
a 366 336 10
a 336 337 5
a 337 336 5
a 337 367 9
a 367 337 9
a 337 338 3
a 338 337 3
a 338 368 6
a 368 338 6
a 338 339 6
a 339 338 6
a 339 369 4
a 369 339 4
a 339 340 10
a 340 339 10
a 340 370 1
a 370 340 1
a 340 341 7
a 341 340 7
a 341 371 3
a 371 341 3
a 341 342 6
a 342 341 6
a 342 372 8
a 372 342 8
a 344 345 8
a 345 344 8
a 345 375 1
a 375 345 1
a 345 346 10
a 346 345 10
a 346 376 3
a 376 346 3
a 346 347 9
a 347 346 9
a 347 377 4
a 377 347 4
a 350 380 3
a 380 350 3
a 350 351 9
a 351 350 9
a 351 352 10
a 352 351 10
a 352 382 7
a 382 352 7
a 352 353 4
a 353 352 4
a 353 383 9
a 383 353 9
a 353 354 2
a 354 353 2
a 354 384 10
a 384 354 10
a 354 355 10
a 355 354 10
a 355 385 7
a 385 355 7
a 355 356 3
a 356 355 3
a 356 386 8
a 386 356 8
a 356 357 4
a 357 356 4
a 357 387 3
a 387 357 3
a 357 358 4
a 358 357 4
a 358 388 5
a 388 358 5
a 358 359 10
a 359 358 10
a 359 389 3
a 389 359 3
a 359 360 4
a 360 359 4
a 360 390 7
a 390 360 7
a 361 391 9
a 391 361 9
a 361 362 2
a 362 361 2
a 362 392 3
a 392 362 3
a 362 363 10
a 363 362 10
a 363 393 8
a 393 363 8
a 363 364 4
a 364 363 4
a 364 365 2
a 365 364 2
a 365 395 5
a 395 365 5
a 365 366 5
a 366 365 5
a 366 396 7
a 396 366 7
a 366 367 9
a 367 366 9
a 367 397 5
a 397 367 5
a 367 368 7
a 368 367 7
a 368 369 1
a 369 368 1
a 369 399 7
a 399 369 7
a 369 370 1
a 370 369 1
a 370 400 10
a 400 370 10
a 370 371 3
a 371 370 3
a 371 401 4
a 401 371 4
a 371 372 2
a 372 371 2
a 372 373 6
a 373 372 6
a 373 403 9
a 403 373 9
a 375 376 4
a 376 375 4
a 376 406 6
a 406 376 6
a 376 377 1
a 377 376 1
a 377 407 8
a 407 377 8
a 377 378 5
a 378 377 5
a 378 379 2
a 379 378 2
a 379 409 4
a 409 379 4
a 379 380 6
a 380 379 6
a 380 410 8
a 410 380 8
a 382 412 3
a 412 382 3
a 382 383 6
a 383 382 6
a 383 413 4
a 413 383 4
a 383 384 7
a 384 383 7
a 384 385 7
a 385 384 7
a 385 415 7
a 415 385 7
a 385 386 5
a 386 385 5
a 386 416 6
a 416 386 6
a 386 387 8
a 387 386 8
a 387 417 5
a 417 387 5
a 387 388 2
a 388 387 2
a 388 418 6
a 418 388 6
a 388 389 3
a 389 388 3
a 389 419 10
a 419 389 10
a 389 390 3
a 390 389 3
a 390 420 5
a 420 390 5
a 391 392 3
a 392 391 3
a 392 422 4
a 422 392 4
a 392 393 6
a 393 392 6
a 393 423 2
a 423 393 2
a 395 425 4
a 425 395 4
a 395 396 8
a 396 395 8
a 396 426 3
a 426 396 3
a 396 397 3
a 397 396 3
a 397 427 5
a 427 397 5
a 399 429 4
a 429 399 4
a 399 400 7
a 400 399 7
a 400 430 8
a 430 400 8
a 400 401 7
a 401 400 7
a 401 431 10
a 431 401 10
a 403 433 3
a 433 403 3
a 403 404 3
a 404 403 3
a 404 434 7
a 434 404 7
a 406 407 3
a 407 406 3
a 409 439 9
a 439 409 9
a 409 410 6
a 410 409 6
a 410 440 9
a 440 410 9
a 410 411 6
a 411 410 6
a 411 441 8
a 441 411 8
a 411 412 2
a 412 411 2
a 412 442 4
a 442 412 4
a 412 413 5
a 413 412 5
a 413 443 2
a 443 413 2
a 415 416 7
a 416 415 7
a 416 446 8
a 446 416 8
a 416 417 8
a 417 416 8
a 417 447 9
a 447 417 9
a 417 418 7
a 418 417 7
a 418 448 8
a 448 418 8
a 418 419 10
a 419 418 10
a 419 449 6
a 449 419 6
a 419 420 6
a 420 419 6
a 420 450 6
a 450 420 6
a 422 452 6
a 452 422 6
a 422 423 3
a 423 422 3
a 423 453 4
a 453 423 4
a 423 424 8
a 424 423 8
a 424 454 8
a 454 424 8
a 424 425 2
a 425 424 2
a 425 455 1
a 455 425 1
a 425 426 10
a 426 425 10
a 426 427 7
a 427 426 7
a 427 428 8
a 428 427 8
a 428 458 5
a 458 428 5
a 428 429 8
a 429 428 8
a 429 459 2
a 459 429 2
a 429 430 4
a 430 429 4
a 430 460 4
a 460 430 4
a 430 431 10
a 431 430 10
a 431 461 10
a 461 431 10
a 433 463 1
a 463 433 1
a 433 434 6
a 434 433 6
a 434 464 7
a 464 434 7
a 434 435 9
a 435 434 9
a 435 465 6
a 465 435 6
a 438 468 5
a 468 438 5
a 438 439 3
a 439 438 3
a 439 469 2
a 469 439 2
a 439 440 6
a 440 439 6
a 440 470 6
a 470 440 6
a 440 441 6
a 441 440 6
a 441 471 9
a 471 441 9
a 441 442 5
a 442 441 5
a 442 472 7
a 472 442 7
a 442 443 10
a 443 442 10
a 443 473 4
a 473 443 4
a 446 476 4
a 476 446 4
a 446 447 10
a 447 446 10
a 447 477 2
a 477 447 2
a 447 448 8
a 448 447 8
a 448 478 5
a 478 448 5
a 448 449 10
a 449 448 10
a 449 479 8
a 479 449 8
a 449 450 4
a 450 449 4
a 450 480 1
a 480 450 1
a 451 452 2
a 452 451 2
a 452 482 10
a 482 452 10
a 452 453 6
a 453 452 6
a 453 483 8
a 483 453 8
a 453 454 3
a 454 453 3
a 454 484 2
a 484 454 2
a 454 455 7
a 455 454 7
a 455 485 9
a 485 455 9
a 458 488 10
a 488 458 10
a 458 459 6
a 459 458 6
a 459 489 2
a 489 459 2
a 459 460 8
a 460 459 8
a 460 490 6
a 490 460 6
a 460 461 1
a 461 460 1
a 461 491 9
a 491 461 9
a 461 462 4
a 462 461 4
a 462 492 1
a 492 462 1
a 462 463 2
a 463 462 2
a 463 493 8
a 493 463 8
a 463 464 7
a 464 463 7
a 464 494 2
a 494 464 2
a 464 465 8
a 465 464 8
a 465 495 9
a 495 465 9
a 465 466 1
a 466 465 1
a 466 496 10
a 496 466 10
a 466 467 1
a 467 466 1
a 467 497 1
a 497 467 1
a 467 468 7
a 468 467 7
a 468 498 1
a 498 468 1
a 468 469 9
a 469 468 9
a 469 499 6
a 499 469 6
a 469 470 3
a 470 469 3
a 470 500 5
a 500 470 5
a 470 471 6
a 471 470 6
a 471 501 2
a 501 471 2
a 471 472 5
a 472 471 5
a 472 502 2
a 502 472 2
a 472 473 1
a 473 472 1
a 473 503 2
a 503 473 2
a 473 474 6
a 474 473 6
a 474 504 8
a 504 474 8
a 474 475 1
a 475 474 1
a 475 505 9
a 505 475 9
a 475 476 2
a 476 475 2
a 476 506 5
a 506 476 5
a 476 477 8
a 477 476 8
a 477 507 10
a 507 477 10
a 477 478 1
a 478 477 1
a 478 479 2
a 479 478 2
a 479 509 2
a 509 479 2
a 479 480 5
a 480 479 5
a 482 512 9
a 512 482 9
a 482 483 2
a 483 482 2
a 483 513 9
a 513 483 9
a 483 484 7
a 484 483 7
a 484 514 5
a 514 484 5
a 484 485 3
a 485 484 3
a 485 515 9
a 515 485 9
a 485 486 3
a 486 485 3
a 486 516 9
a 516 486 9
a 486 487 6
a 487 486 6
a 487 517 3
a 517 487 3
a 487 488 3
a 488 487 3
a 488 518 1
a 518 488 1
a 488 489 9
a 489 488 9
a 489 490 10
a 490 489 10
a 490 520 4
a 520 490 4
a 490 491 10
a 491 490 10
a 491 521 9
a 521 491 9
a 491 492 10
a 492 491 10
a 492 522 3
a 522 492 3
a 492 493 5
a 493 492 5
a 493 523 8
a 523 493 8
a 493 494 9
a 494 493 9
a 494 495 10
a 495 494 10
a 495 525 2
a 525 495 2
a 495 496 7
a 496 495 7
a 496 526 8
a 526 496 8
a 496 497 7
a 497 496 7
a 497 498 2
a 498 497 2
a 498 528 3
a 528 498 3
a 498 499 1
a 499 498 1
a 499 529 7
a 529 499 7
a 499 500 9
a 500 499 9
a 500 530 8
a 530 500 8
a 500 501 6
a 501 500 6
a 501 531 7
a 531 501 7
a 501 502 6
a 502 501 6
a 502 532 7
a 532 502 7
a 502 503 8
a 503 502 8
a 503 533 3
a 533 503 3
a 503 504 10
a 504 503 10
a 504 534 1
a 534 504 1
a 504 505 3
a 505 504 3
a 505 535 5
a 535 505 5
a 505 506 2
a 506 505 2
a 506 507 2
a 507 506 2
a 507 537 7
a 537 507 7
a 509 539 5
a 539 509 5
a 511 541 4
a 541 511 4
a 511 512 5
a 512 511 5
a 512 542 5
a 542 512 5
a 512 513 2
a 513 512 2
a 513 543 7
a 543 513 7
a 513 514 1
a 514 513 1
a 514 515 9
a 515 514 9
a 515 545 2
a 545 515 2
a 515 516 1
a 516 515 1
a 516 546 7
a 546 516 7
a 516 517 1
a 517 516 1
a 517 518 1
a 518 517 1
a 518 548 5
a 548 518 5
a 520 550 5
a 550 520 5
a 520 521 2
a 521 520 2
a 521 551 6
a 551 521 6
a 521 522 1
a 522 521 1
a 522 552 4
a 552 522 4
a 522 523 7
a 523 522 7
a 523 553 10
a 553 523 10
a 525 555 6
a 555 525 6
a 525 526 3
a 526 525 3
a 526 556 3
a 556 526 3
a 528 558 9
a 558 528 9
a 528 529 2
a 529 528 2
a 529 559 4
a 559 529 4
a 529 530 6
a 530 529 6
a 530 560 2
a 560 530 2
a 530 531 3
a 531 530 3
a 531 561 4
a 561 531 4
a 531 532 2
a 532 531 2
a 532 562 9
a 562 532 9
a 532 533 9
a 533 532 9
a 533 563 4
a 563 533 4
a 533 534 5
a 534 533 5
a 534 564 5
a 564 534 5
a 534 535 10
a 535 534 10
a 537 567 3
a 567 537 3
a 539 569 2
a 569 539 2
a 539 540 5
a 540 539 5
a 540 570 9
a 570 540 9
a 541 571 8
a 571 541 8
a 541 542 4
a 542 541 4
a 542 572 1
a 572 542 1
a 542 543 1
a 543 542 1
a 543 573 6
a 573 543 6
a 545 575 4
a 575 545 4
a 545 546 2
a 546 545 2
a 546 576 7
a 576 546 7
a 548 578 7
a 578 548 7
a 548 549 8
a 549 548 8
a 549 579 2
a 579 549 2
a 549 550 7
a 550 549 7
a 550 580 3
a 580 550 3
a 550 551 5
a 551 550 5
a 551 581 10
a 581 551 10
a 551 552 9
a 552 551 9
a 552 582 3
a 582 552 3
a 552 553 5
a 553 552 5
a 553 583 3
a 583 553 3
a 555 585 8
a 585 555 8
a 555 556 3
a 556 555 3
a 556 586 2
a 586 556 2
a 556 557 6
a 557 556 6
a 557 558 4
a 558 557 4
a 558 588 8
a 588 558 8
a 558 559 7
a 559 558 7
a 559 589 8
a 589 559 8
a 559 560 1
a 560 559 1
a 560 590 8
a 590 560 8
a 560 561 7
a 561 560 7
a 561 562 1
a 562 561 1
a 562 592 4
a 592 562 4
a 562 563 5
a 563 562 5
a 563 593 6
a 593 563 6
a 563 564 10
a 564 563 10
a 564 594 9
a 594 564 9
a 566 596 3
a 596 566 3
a 566 567 5
a 567 566 5
a 567 597 8
a 597 567 8
a 567 568 7
a 568 567 7
a 568 598 5
a 598 568 5
a 568 569 4
a 569 568 4
a 569 599 8
a 599 569 8
a 569 570 9
a 570 569 9
a 570 600 8
a 600 570 8
a 571 601 1
a 601 571 1
a 571 572 8
a 572 571 8
a 572 602 9
a 602 572 9
a 572 573 3
a 573 572 3
a 573 603 10
a 603 573 10
a 573 574 3
a 574 573 3
a 574 604 7
a 604 574 7
a 574 575 4
a 575 574 4
a 575 605 6
a 605 575 6
a 575 576 9
a 576 575 9
a 576 606 1
a 606 576 1
a 578 608 1
a 608 578 1
a 578 579 9
a 579 578 9
a 579 609 10
a 609 579 10
a 579 580 5
a 580 579 5
a 580 610 2
a 610 580 2
a 580 581 3
a 581 580 3
a 581 611 2
a 611 581 2
a 581 582 1
a 582 581 1
a 582 612 8
a 612 582 8
a 582 583 7
a 583 582 7
a 583 613 8
a 613 583 8
a 583 584 9
a 584 583 9
a 584 614 10
a 614 584 10
a 584 585 6
a 585 584 6
a 585 615 2
a 615 585 2
a 585 586 10
a 586 585 10
a 586 616 8
a 616 586 8
a 588 618 6
a 618 588 6
a 588 589 5
a 589 588 5
a 589 619 8
a 619 589 8
a 589 590 1
a 590 589 1
a 590 620 1
a 620 590 1
a 592 622 8
a 622 592 8
a 592 593 5
a 593 592 5
a 593 623 3
a 623 593 3
a 593 594 1
a 594 593 1
a 594 595 8
a 595 594 8
a 595 625 10
a 625 595 10
a 595 596 4
a 596 595 4
a 596 626 2
a 626 596 2
a 596 597 10
a 597 596 10
a 597 627 8
a 627 597 8
a 597 598 10
a 598 597 10
a 598 628 6
a 628 598 6
a 598 599 5
a 599 598 5
a 599 629 2
a 629 599 2
a 599 600 6
a 600 599 6
a 600 630 9
a 630 600 9
a 601 631 7
a 631 601 7
a 601 602 8
a 602 601 8
a 602 632 7
a 632 602 7
a 602 603 8
a 603 602 8
a 603 633 9
a 633 603 9
a 603 604 6
a 604 603 6
a 604 634 10
a 634 604 10
a 604 605 3
a 605 604 3
a 605 635 6
a 635 605 6
a 605 606 7
a 606 605 7
a 606 636 1
a 636 606 1
a 608 638 6
a 638 608 6
a 608 609 1
a 609 608 1
a 609 639 6
a 639 609 6
a 609 610 8
a 610 609 8
a 610 640 6
a 640 610 6
a 610 611 5
a 611 610 5
a 611 641 10
a 641 611 10
a 611 612 8
a 612 611 8
a 612 642 8
a 642 612 8
a 612 613 2
a 613 612 2
a 613 643 2
a 643 613 2
a 613 614 1
a 614 613 1
a 614 644 1
a 644 614 1
a 614 615 6
a 615 614 6
a 615 645 10
a 645 615 10
a 615 616 6
a 616 615 6
a 616 646 7
a 646 616 7
a 616 617 3
a 617 616 3
a 617 647 4
a 647 617 4
a 617 618 9
a 618 617 9
a 618 648 6
a 648 618 6
a 618 619 1
a 619 618 1
a 619 649 3
a 649 619 3
a 619 620 5
a 620 619 5
a 620 650 10
a 650 620 10
a 620 621 7
a 621 620 7
a 621 651 8
a 651 621 8
a 621 622 6
a 622 621 6
a 622 652 9
a 652 622 9
a 622 623 9
a 623 622 9
a 623 653 4
a 653 623 4
a 625 655 4
a 655 625 4
a 625 626 3
a 626 625 3
a 626 656 9
a 656 626 9
a 626 627 7
a 627 626 7
a 627 657 4
a 657 627 4
a 627 628 8
a 628 627 8
a 628 629 5
a 629 628 5
a 629 659 6
a 659 629 6
a 629 630 5
a 630 629 5
a 630 660 4
a 660 630 4
a 631 661 1
a 661 631 1
a 631 632 7
a 632 631 7
a 632 662 7
a 662 632 7
a 632 633 7
a 633 632 7
a 633 663 5
a 663 633 5
a 633 634 5
a 634 633 5
a 634 664 4
a 664 634 4
a 634 635 8
a 635 634 8
a 635 665 8
a 665 635 8
a 635 636 7
a 636 635 7
a 636 666 4
a 666 636 4
a 636 637 4
a 637 636 4
a 637 638 4
a 638 637 4
a 638 668 8
a 668 638 8
a 638 639 8
a 639 638 8
a 639 669 3
a 669 639 3
a 639 640 2
a 640 639 2
a 640 670 8
a 670 640 8
a 640 641 4
a 641 640 4
a 641 671 8
a 671 641 8
a 641 642 1
a 642 641 1
a 642 672 2
a 672 642 2
a 642 643 1
a 643 642 1
a 643 673 10
a 673 643 10
a 643 644 8
a 644 643 8
a 644 674 10
a 674 644 10
a 644 645 9
a 645 644 9
a 645 646 5
a 646 645 5
a 646 676 5
a 676 646 5
a 646 647 1
a 647 646 1
a 647 677 8
a 677 647 8
a 647 648 7
a 648 647 7
a 648 678 6
a 678 648 6
a 648 649 7
a 649 648 7
a 649 679 3
a 679 649 3
a 649 650 7
a 650 649 7
a 650 680 10
a 680 650 10
a 650 651 10
a 651 650 10
a 651 681 5
a 681 651 5
a 651 652 6
a 652 651 6
a 652 682 4
a 682 652 4
a 652 653 10
a 653 652 10
a 653 683 4
a 683 653 4
a 653 654 1
a 654 653 1
a 654 684 2
a 684 654 2
a 654 655 5
a 655 654 5
a 655 685 10
a 685 655 10
a 655 656 4
a 656 655 4
a 656 686 5
a 686 656 5
a 656 657 9
a 657 656 9
a 657 687 6
a 687 657 6
a 659 689 9
a 689 659 9
a 659 660 8
a 660 659 8
a 660 690 10
a 690 660 10
a 661 691 7
a 691 661 7
a 661 662 8
a 662 661 8
a 662 692 1
a 692 662 1
a 662 663 2
a 663 662 2
a 663 693 7
a 693 663 7
a 663 664 7
a 664 663 7
a 664 694 4
a 694 664 4
a 664 665 1
a 665 664 1
a 665 695 3
a 695 665 3
a 665 666 5
a 666 665 5
a 666 696 2
a 696 666 2
a 668 698 6
a 698 668 6
a 668 669 10
a 669 668 10
a 669 699 6
a 699 669 6
a 669 670 4
a 670 669 4
a 670 700 7
a 700 670 7
a 670 671 3
a 671 670 3
a 671 701 1
a 701 671 1
a 671 672 1
a 672 671 1
a 672 702 5
a 702 672 5
a 672 673 2
a 673 672 2
a 673 703 5
a 703 673 5
a 673 674 9
a 674 673 9
a 674 704 9
a 704 674 9
a 676 706 1
a 706 676 1
a 676 677 4
a 677 676 4
a 677 707 5
a 707 677 5
a 677 678 2
a 678 677 2
a 678 708 9
a 708 678 9
a 678 679 5
a 679 678 5
a 679 709 5
a 709 679 5
a 679 680 6
a 680 679 6
a 680 710 3
a 710 680 3
a 680 681 6
a 681 680 6
a 681 682 7
a 682 681 7
a 682 712 4
a 712 682 4
a 682 683 4
a 683 682 4
a 683 713 5
a 713 683 5
a 683 684 3
a 684 683 3
a 684 714 5
a 714 684 5
a 684 685 8
a 685 684 8
a 685 686 8
a 686 685 8
a 686 716 3
a 716 686 3
a 686 687 4
a 687 686 4
a 687 717 7
a 717 687 7
a 687 688 3
a 688 687 3
a 688 689 6
a 689 688 6
a 689 719 8
a 719 689 8
a 689 690 5
a 690 689 5
a 691 721 9
a 721 691 9
a 691 692 3
a 692 691 3
a 692 722 3
a 722 692 3
a 692 693 3
a 693 692 3
a 693 723 10
a 723 693 10
a 693 694 8
a 694 693 8
a 694 724 6
a 724 694 6
a 694 695 4
a 695 694 4
a 695 725 9
a 725 695 9
a 695 696 9
a 696 695 9
a 696 726 3
a 726 696 3
a 696 697 1
a 697 696 1
a 697 727 3
a 727 697 3
a 697 698 8
a 698 697 8
a 698 728 7
a 728 698 7
a 698 699 6
a 699 698 6
a 699 729 10
a 729 699 10
a 699 700 10
a 700 699 10
a 700 730 6
a 730 700 6
a 700 701 5
a 701 700 5
a 701 731 2
a 731 701 2
a 701 702 10
a 702 701 10
a 702 732 4
a 732 702 4
a 702 703 2
a 703 702 2
a 703 733 2
a 733 703 2
a 703 704 10
a 704 703 10
a 704 734 3
a 734 704 3
a 704 705 6
a 705 704 6
a 705 735 2
a 735 705 2
a 705 706 8
a 706 705 8
a 706 736 9
a 736 706 9
a 706 707 7
a 707 706 7
a 707 737 10
a 737 707 10
a 707 708 1
a 708 707 1
a 708 738 7
a 738 708 7
a 708 709 1
a 709 708 1
a 709 739 6
a 739 709 6
a 709 710 4
a 710 709 4
a 712 742 5
a 742 712 5
a 712 713 8
a 713 712 8
a 713 743 10
a 743 713 10
a 713 714 6
a 714 713 6
a 714 744 7
a 744 714 7
a 716 717 2
a 717 716 2
a 717 747 10
a 747 717 10
a 719 749 4
a 749 719 4
a 721 722 1
a 722 721 1
a 722 752 7
a 752 722 7
a 722 723 6
a 723 722 6
a 723 724 5
a 724 723 5
a 724 754 6
a 754 724 6
a 724 725 5
a 725 724 5
a 725 755 7
a 755 725 7
a 725 726 3
a 726 725 3
a 726 756 6
a 756 726 6
a 726 727 10
a 727 726 10
a 727 757 1
a 757 727 1
a 727 728 2
a 728 727 2
a 728 758 2
a 758 728 2
a 728 729 4
a 729 728 4
a 729 759 10
a 759 729 10
a 729 730 9
a 730 729 9
a 730 760 1
a 760 730 1
a 730 731 5
a 731 730 5
a 731 761 4
a 761 731 4
a 731 732 3
a 732 731 3
a 732 762 1
a 762 732 1
a 732 733 9
a 733 732 9
a 733 763 1
a 763 733 1
a 733 734 10
a 734 733 10
a 734 764 3
a 764 734 3
a 734 735 9
a 735 734 9
a 735 765 1
a 765 735 1
a 735 736 7
a 736 735 7
a 736 766 3
a 766 736 3
a 736 737 3
a 737 736 3
a 737 767 1
a 767 737 1
a 737 738 1
a 738 737 1
a 738 768 4
a 768 738 4
a 738 739 1
a 739 738 1
a 741 771 10
a 771 741 10
a 741 742 2
a 742 741 2
a 742 772 6
a 772 742 6
a 742 743 8
a 743 742 8
a 743 773 2
a 773 743 2
a 743 744 2
a 744 743 2
a 744 774 10
a 774 744 10
a 744 745 9
a 745 744 9
a 745 775 5
a 775 745 5
a 747 777 3
a 777 747 3
a 749 779 5
a 779 749 5
a 749 750 10
a 750 749 10
a 750 780 4
a 780 750 4
a 752 782 8
a 782 752 8
a 754 784 3
a 784 754 3
a 754 755 1
a 755 754 1
a 755 785 6
a 785 755 6
a 755 756 10
a 756 755 10
a 756 786 2
a 786 756 2
a 756 757 2
a 757 756 2
a 757 787 1
a 787 757 1
a 757 758 3
a 758 757 3
a 758 788 1
a 788 758 1
a 758 759 8
a 759 758 8
a 759 789 3
a 789 759 3
a 759 760 10
a 760 759 10
a 760 790 4
a 790 760 4
a 760 761 8
a 761 760 8
a 761 791 8
a 791 761 8
a 761 762 9
a 762 761 9
a 762 792 9
a 792 762 9
a 762 763 8
a 763 762 8
a 763 793 4
a 793 763 4
a 763 764 8
a 764 763 8
a 764 765 5
a 765 764 5
a 765 795 6
a 795 765 6
a 765 766 7
a 766 765 7
a 766 796 1
a 796 766 1
a 766 767 10
a 767 766 10
a 767 797 7
a 797 767 7
a 767 768 5
a 768 767 5
a 768 798 5
a 798 768 5
a 770 800 7
a 800 770 7
a 770 771 6
a 771 770 6
a 771 801 3
a 801 771 3
a 771 772 9
a 772 771 9
a 772 802 5
a 802 772 5
a 772 773 10
a 773 772 10
a 773 803 6
a 803 773 6
a 773 774 4
a 774 773 4
a 774 804 6
a 804 774 6
a 774 775 9
a 775 774 9
a 775 805 4
a 805 775 4
a 775 776 2
a 776 775 2
a 776 806 5
a 806 776 5
a 776 777 5
a 777 776 5
a 777 807 4
a 807 777 4
a 777 778 5
a 778 777 5
a 778 808 3
a 808 778 3
a 778 779 8
a 779 778 8
a 779 809 5
a 809 779 5
a 779 780 9
a 780 779 9
a 780 810 1
a 810 780 1
a 781 811 8
a 811 781 8
a 781 782 6
a 782 781 6
a 782 812 2
a 812 782 2
a 782 783 2
a 783 782 2
a 783 813 8
a 813 783 8
a 783 784 3
a 784 783 3
a 784 814 4
a 814 784 4
a 784 785 2
a 785 784 2
a 785 815 2
a 815 785 2
a 785 786 8
a 786 785 8
a 786 816 5
a 816 786 5
a 786 787 10
a 787 786 10
a 787 817 10
a 817 787 10
a 787 788 5
a 788 787 5
a 788 818 2
a 818 788 2
a 788 789 8
a 789 788 8
a 789 819 3
a 819 789 3
a 789 790 6
a 790 789 6
a 790 820 10
a 820 790 10
a 790 791 6
a 791 790 6
a 791 821 1
a 821 791 1
a 791 792 2
a 792 791 2
a 792 822 7
a 822 792 7
a 792 793 8
a 793 792 8
a 793 823 6
a 823 793 6
a 795 825 5
a 825 795 5
a 795 796 8
a 796 795 8
a 796 797 9
a 797 796 9
a 797 798 9
a 798 797 9
a 798 828 4
a 828 798 4
a 798 799 9
a 799 798 9
a 799 829 7
a 829 799 7
a 799 800 3
a 800 799 3
a 800 801 8
a 801 800 8
a 801 831 10
a 831 801 10
a 801 802 2
a 802 801 2
a 802 832 5
a 832 802 5
a 802 803 1
a 803 802 1
a 803 804 10
a 804 803 10
a 804 834 7
a 834 804 7
a 804 805 1
a 805 804 1
a 805 835 5
a 835 805 5
a 805 806 5
a 806 805 5
a 806 836 2
a 836 806 2
a 806 807 10
a 807 806 10
a 807 837 10
a 837 807 10
a 807 808 10
a 808 807 10
a 808 809 9
a 809 808 9
a 809 839 9
a 839 809 9
a 809 810 5
a 810 809 5
a 811 841 10
a 841 811 10
a 811 812 1
a 812 811 1
a 812 842 3
a 842 812 3
a 812 813 1
a 813 812 1
a 813 843 10
a 843 813 10
a 813 814 6
a 814 813 6
a 814 844 7
a 844 814 7
a 814 815 2
a 815 814 2
a 815 845 3
a 845 815 3
a 815 816 4
a 816 815 4
a 816 846 9
a 846 816 9
a 816 817 5
a 817 816 5
a 817 847 7
a 847 817 7
a 817 818 9
a 818 817 9
a 818 848 8
a 848 818 8
a 818 819 5
a 819 818 5
a 819 849 6
a 849 819 6
a 819 820 9
a 820 819 9
a 820 850 2
a 850 820 2
a 820 821 1
a 821 820 1
a 821 851 2
a 851 821 2
a 821 822 9
a 822 821 9
a 822 852 6
a 852 822 6
a 822 823 1
a 823 822 1
a 823 853 1
a 853 823 1
a 823 824 7
a 824 823 7
a 824 854 10
a 854 824 10
a 824 825 8
a 825 824 8
a 825 855 2
a 855 825 2
a 828 858 3
a 858 828 3
a 828 829 10
a 829 828 10
a 829 859 10
a 859 829 10
a 831 861 2
a 861 831 2
a 831 832 5
a 832 831 5
a 834 864 9
a 864 834 9
a 834 835 7
a 835 834 7
a 835 865 2
a 865 835 2
a 835 836 4
a 836 835 4
a 836 866 2
a 866 836 2
a 836 837 10
a 837 836 10
a 837 867 5
a 867 837 5
a 839 869 10
a 869 839 10
a 841 842 10
a 842 841 10
a 842 872 9
a 872 842 9
a 842 843 1
a 843 842 1
a 843 873 7
a 873 843 7
a 843 844 7
a 844 843 7
a 844 874 4
a 874 844 4
a 844 845 3
a 845 844 3
a 845 875 3
a 875 845 3
a 845 846 7
a 846 845 7
a 846 876 8
a 876 846 8
a 846 847 2
a 847 846 2
a 847 877 7
a 877 847 7
a 847 848 4
a 848 847 4
a 848 849 4
a 849 848 4
a 849 879 1
a 879 849 1
a 849 850 3
a 850 849 3
a 850 880 2
a 880 850 2
a 850 851 8
a 851 850 8
a 851 881 7
a 881 851 7
a 851 852 4
a 852 851 4
a 852 882 3
a 882 852 3
a 852 853 2
a 853 852 2
a 853 883 7
a 883 853 7
a 853 854 10
a 854 853 10
a 854 884 7
a 884 854 7
a 854 855 8
a 855 854 8
a 855 885 10
a 885 855 10
a 857 887 1
a 887 857 1
a 857 858 6
a 858 857 6
a 858 888 7
a 888 858 7
a 858 859 8
a 859 858 8
a 859 889 9
a 889 859 9
a 859 860 8
a 860 859 8
a 860 890 6
a 890 860 6
a 860 861 3
a 861 860 3
a 861 891 8
a 891 861 8
a 863 893 10
a 893 863 10
a 863 864 7
a 864 863 7
a 864 894 6
a 894 864 6
a 864 865 9
a 865 864 9
a 865 895 1
a 895 865 1
a 865 866 9
a 866 865 9
a 866 896 9
a 896 866 9
a 866 867 3
a 867 866 3
a 867 897 1
a 897 867 1
a 867 868 1
a 868 867 1
a 868 898 3
a 898 868 3
a 868 869 10
a 869 868 10
a 869 899 6
a 899 869 6
a 872 873 10
a 873 872 10
a 873 874 7
a 874 873 7
a 874 875 6
a 875 874 6
a 875 876 7
a 876 875 7
a 876 877 3
a 877 876 3
a 879 880 1
a 880 879 1
a 880 881 1
a 881 880 1
a 881 882 5
a 882 881 5
a 882 883 8
a 883 882 8
a 883 884 8
a 884 883 8
a 884 885 9
a 885 884 9
a 885 886 7
a 886 885 7
a 886 887 6
a 887 886 6
a 887 888 2
a 888 887 2
a 888 889 1
a 889 888 1
a 889 890 10
a 890 889 10
a 890 891 6
a 891 890 6
a 891 892 3
a 892 891 3
a 892 893 3
a 893 892 3
a 893 894 1
a 894 893 1
a 894 895 8
a 895 894 8
a 895 896 1
a 896 895 1
a 896 897 7
a 897 896 7
a 897 898 8
a 898 897 8
a 898 899 3
a 899 898 3
a 899 900 9
a 900 899 9
